&CONTROL           
    calculation       =  'scf'                        
    restart_mode      =  'from_scratch'               
    prefix            =  'SiO2'
    pseudo_dir        =  '/n/holyscratch01/kozinsky_lab/sfalletta/QE/Inputs'
    outdir            =  '/n/holyscratch01/kozinsky_lab/sfalletta/QE/SiO2/SiO2-T600-E0-0'
    etot_conv_thr     =  1.0d-8
    forc_conv_thr     =  1.0d-6
    max_seconds       =  86000
    lelfield          =  .true.                          
    nberrycyc         =  1                   
    tstress           =  .true.                       
    tprnfor           =  .true.
/
&SYSTEM            
    input_dft         =  'PBE'
    ecutwfc           =  100
    ecutrho           =  800
    ibrav             =  14
    A                 =  9.97060582                           
    B                 =  8.634797931240973                           
    C                 =  10.95705942                           
    cosBC             =  0.00                    
    cosAC             =  0.00                     
    cosAB             =  0.00                    
    nat               =  72
    ntyp              =  2
    occupations       =  'fixed'
    nbnd              =  220
/
&ELECTRONS         
    conv_thr          =  1.0d-8
    electron_maxstep  =  500
    mixing_beta       =  0.7
    diagonalization   =  'david'
    diago_full_acc    =  .true.
    efield_cart(1)    =  0                        
    efield_cart(2)    =  0                         
    efield_cart(3)    =  0.0E-04                         
/
ATOMIC_SPECIES     
    Si  28.0855  Si.upf
    O   15.999   O.upf

K_POINTS           automatic
      2 2 2 0 0 0
ATOMIC_POSITIONS   angstrom 
Si       8.81580000       2.10898000       4.42224000
Si       1.35609000       2.21633000       2.84507000
Si       2.21229000       8.53730000       0.88259800
O        9.28085000       2.91006000       0.34771300
O        0.93152000       3.67777000       2.27431000
O        0.14806100       1.76300000       3.63529000
O        1.59627000       1.28374000       1.60300000
O        2.60623000       2.70550000       3.64408000
O        3.45030000       0.85441100       5.23990000
Si       9.00743000       1.90159000      10.13300000
Si       1.38761000       2.03403000       8.28720000
Si       2.56596000       0.05584500       6.32611000
O        8.94256000       3.35613000       5.39408000
O        0.68590900       3.10856000       7.26055000
O        0.24760100       1.49825000       9.24858000
O        2.22884000       0.56603800       7.76310000
O        2.65138000       2.92532000       9.13495000
O        3.16105000       0.74097400      10.59950000
Si       8.49157000       6.59928000       2.65575000
Si       9.91551000       4.21543000       1.05882000
O        7.99536000       7.99938000       2.06306000
O        8.94845000       5.36810000       1.56299000
O        9.95513000       6.91802000       3.70585000
O        0.80712000       4.99322000       5.47863000
Si       8.65063000       6.36574000       8.13570000
Si       9.83854000       4.23402000       6.45413000
O        8.39803000       7.75256000       7.21352000
O        8.95716000       5.23366000       7.17668000
O        9.64457000       6.45225000       9.42828000
O        1.05806000       4.98597000       0.05068330
Si       3.85753000       2.15807000       4.36348000
Si       6.42738000       2.18259000       2.66673000
Si       7.48570000       0.03297980       0.74281000
O        4.09234000       3.46488000       0.29789800
O        5.97344000       3.65363000       2.02272000
O        5.02754000       1.50791000       3.46019000
O        6.64093000       1.17962000       1.42975000
O        7.68679000       2.37119000       3.44953000
O        8.38699000       0.79313800       5.33809000
Si       3.78716000       2.44068000      10.10790000
Si       6.46337000       2.41379000       8.36146000
Si       7.56961000       0.10578300       6.40606000
O        4.17540000       3.30669000       5.55816000
O        6.21609000       3.49169000       7.12782000
O        5.12460000       2.13290000       9.16711000
O        6.84100000       0.98692900       7.47709000
O        7.94990000       2.53706000       9.25049000
O        8.49450000       0.53905200      10.63210000
Si       1.07047000       6.46440000       4.69409000
Si       3.50372000       6.62920000       2.80883000
Si       5.17539000       4.40349000       1.00265000
O        1.20021000       7.58700000       0.11672900
O        2.85457000       7.79163000       1.96366000
O        2.46953000       6.20440000       3.93476000
O        4.29181000       5.66671000       1.71373000
O        4.84802000       6.96511000       3.69205000
O        5.67093000       5.31481000       5.35599000
Si       1.01676000       6.29754000      10.16720000
Si       3.69546000       6.40978000       8.03848000
Si       5.18852000       4.25262000       6.42077000
O        1.27109000       7.83519000       5.57075000
O        3.59609000       7.46565000       6.89478000
O        2.34385000       5.96797000       9.14662000
O        4.22367000       5.03985000       7.51197000
O        4.75432000       6.79632000       9.13132000
O        5.93437000       5.22202000      10.86620000
Si       6.17867000       6.57584000       4.51857000
O        6.35265000       7.75936000       0.07874810
O        7.33890000       6.20365000       3.59279000
Si       6.06707000       6.60396000       9.97753000
O        6.45041000       7.70452000       5.56427000
O        7.19646000       6.20323000       8.85570000
