&CONTROL           
    calculation       =  'scf'                        
    restart_mode      =  'from_scratch'               
    prefix            =  'BaTiO3'
    pseudo_dir        =  '/n/holyscratch01/kozinsky_lab/sfalletta/QE/Inputs'
    outdir            =  '/n/holyscratch01/kozinsky_lab/sfalletta/QE/BaTiO3/BaTiO3-Ey-0'
    etot_conv_thr     =  1.0d-8
    forc_conv_thr     =  1.0d-6
    max_seconds       =  86000
    lelfield          =  .true.                          
    nberrycyc         =  1                            
    tstress           =  .true.                       
    tprnfor           =  .true.
/
&SYSTEM            
    input_dft         =  'PBE'
    ecutwfc           =  100
    ecutrho           =  800
    ibrav             =  8
    A                 =  11.898253                           
    B                 =  11.898253                           
    C                 =  12.912076                           
    cosBC             =  0.00                    
    cosAC             =  0.00                     
    cosAB             =  0.00                    
    nat               =  135
    ntyp              =  3
    occupations       =  'fixed'
    nbnd              =  550
/
&ELECTRONS         
    conv_thr          =  1.0d-8
    electron_maxstep  =  500
    mixing_beta       =  0.7
    diagonalization   =  'david'
    diago_full_acc    =  .true.
    efield_cart(1)    =  0                        
    efield_cart(2)    =  1.0E-04                         
    efield_cart(3)    =  0                         
/
ATOMIC_SPECIES     
    Ba  137.327  Ba.upf
    Ti  47.90    Ti.upf
    O   15.999   O.upf

K_POINTS           automatic
      1 1 1 0 0 0
ATOMIC_POSITIONS   angstrom 
Ba    1.9883174400   1.9826840300   0.0788988100
Ba    1.9767534200   1.9871497100   4.3749531800
Ba    1.9746076600   1.9853459200   8.6710648200
Ba    1.9739340600   5.9411642200   0.0752046900
Ba    1.9805351200   5.9437144200   4.3745424600
Ba    1.9779556100   5.9567453500   8.6814908300
Ba    1.9792550100   9.9117062600   0.0790702500
Ba    1.9880046100   9.9076409600   4.3696957600
Ba    1.9788462800   9.9195041500   8.6810963600
Ba    5.9426939500   1.9845952600   0.0770313200
Ba    5.9451269000   1.9786515800   4.3794869800
Ba    5.9429090800   1.9912266500   8.6881504200
Ba    5.9486388200   5.9581463900   0.0614676400
Ba    5.9481903400   5.9438345800   4.3695641000
Ba    5.9511458600   5.9507732100   8.6871710300
Ba    5.9528431500   9.9056477400   0.0747526500
Ba    5.9438147200   9.9099661200   4.3711257000
Ba    5.9413958300   9.9143199200   8.6774004500
Ba    9.9064856500   1.9817862600   0.0661543200
Ba    9.9114252500   1.9853528300   4.3757536500
Ba    9.9165359300   1.9904742100   8.6779385900
Ba    9.9244930300   5.9557022300   0.0794914800
Ba    9.9196174400   5.9432085500   4.3793031600
Ba    9.9200448400   5.9522262100   8.6713434700
Ba    9.9071073100   9.9109840600   0.0623323800
Ba    9.9156452300   9.9171577600   4.3715704800
Ba    9.9068378800   9.9099326100   8.6756541600
Ti   -0.0035031600  -0.0051655000   2.2967891500
Ti    0.0063525300   0.0042817400   6.5918575800
Ti   -0.0076591000  -0.0008946400  10.9024184400
Ti   -0.0017004400   3.9567178600   2.2964284900
Ti    0.0064259300   3.9649219100   6.5942737100
Ti   -0.0003687200   3.9733950600  10.8957505600
Ti   -0.0036667400   7.9355500900   2.2833008600
Ti    0.0055561800   7.9307197000   6.5918853000
Ti   -0.0093531300   7.9331031600  10.8971291300
Ti    3.9639788000   0.0075023900   2.3002366400
Ti    3.9729125700   0.0007568300   6.5979416000
Ti    3.9685702800  -0.0044095900  10.8939323500
Ti    3.9579016300   3.9708641900   2.2938705800
Ti    3.9594988100   3.9753583600   6.6061815900
Ti    3.9620353200   3.9658543500  10.9008496000
Ti    3.9586946400   7.9223452700   2.3015015500
Ti    3.9596927700   7.9251003700   6.5921718300
Ti    3.9629770100   7.9246605900  10.9001297800
Ti    7.9306090200   0.0076274100   2.2931049700
Ti    7.9239574600  -0.0016485800   6.6039393700
Ti    7.9318726700   0.0014294500  10.8988475500
Ti    7.9352889600   3.9752422900   2.2974061500
Ti    7.9255811800   3.9660358000   6.5972060200
Ti    7.9238139100   3.9733726900  10.8937710000
Ti    7.9222932900   7.9237987800   2.2862463800
Ti    7.9256364900   7.9356718400   6.6053881900
Ti    7.9235389600   7.9272087000  10.9015458600
O    -0.0083758400   1.9894916800   2.0431078700
O     1.9876592100   0.0011419200   2.0435305700
O    -0.0046980300   0.0011295300   4.0802677600
O     0.0053845400   1.9734213000   6.3429996800
O     1.9759271500  -0.0080979800   6.3525662600
O     0.0096297600   0.0066223500   8.3827855800
O     0.0071537500   1.9912458000  10.6479435800
O     1.9841550900   0.0090407200  10.6422098700
O    -0.0003366500   0.0025335700  -0.2240853806
O    -0.0036794500   5.9490552100   2.0455817500
O     1.9825655400   3.9725683200   2.0337899400
O     0.0018202300   3.9726287800   4.0830815100
O     0.0090062600   5.9430752100   6.3330151000
O     1.9883037700   3.9714249600   6.3414752800
O     0.0097490400   3.9615721700   8.4006871200
O    -0.0081084300   5.9503867100  10.6550954100
O     1.9733553600   3.9639972900  10.6515761100
O     0.0034731400   3.9715577200  -0.2258778406
O    -0.0077262700   9.9249392700   2.0481540300
O     1.9857579600   7.9267534900   2.0373561600
O     0.0055744400   7.9231030700   4.0941462100
O     0.0097025200   9.9127028500   6.3375802400
O     1.9854823400   7.9367004400   6.3372798100
O     0.0013845000   7.9262971200   8.3955797600
O     0.0013332400   9.9104708900  10.6425296700
O     1.9776368700   7.9403320000  10.6497981500
O     0.0045461600   7.9291524000  -0.2107149006
O     3.9678420800   1.9864274000   2.0291412700
O     5.9441590500  -0.0082121200   2.0420650500
O     3.9687080600   0.0022861300   4.0850649000
O     3.9614328200   1.9821031800   6.3362203100
O     5.9447718000   0.0023416000   6.3329922300
O     3.9721345900  -0.0092867300   8.3875665600
O     3.9591357000   1.9881052200  10.6469185000
O     5.9487484700  -0.0038019700  10.6501310000
O     3.9726970600   0.0024532600  -0.2170608406
O     3.9619229400   5.9477121300   2.0455632700
O     5.9398422600   3.9636101900   2.0308479000
O     3.9660972500   3.9621989500   4.0867598700
O     3.9641901800   5.9500506600   6.3502153900
O     5.9456981900   3.9647850800   6.3501023400
O     3.9617932100   3.9565035100   8.4003972200
O     3.9643798100   5.9396909900  10.6558805800
O     5.9442905800   3.9629198500  10.6439961700
O     3.9681926600   3.9705865300  -0.2249376606
O     3.9620589700   9.9238528400   2.0406085400
O     5.9406169300   7.9409369100   2.0458058100
O     3.9633026400   7.9357221600   4.0822987100
O     3.9632259400   9.9237090100   6.3477476500
O     5.9571343400   7.9395571000   6.3474600000
O     3.9739799900   7.9388980300   8.3894427600
O     3.9628576800   9.9105732900  10.6434141400
O     5.9566224400   7.9232331900  10.6542384300
O     3.9566346400   7.9416593100  -0.2108513706
O     7.9299675300   1.9838609600   2.0484699200
O     9.9145902600   0.0094583400   2.0454999300
O     7.9297072800   0.0028902700   4.0854105600
O     7.9386433100   1.9768777300   6.3374883400
O     9.9084468800   0.0066344300   6.3473837100
O     7.9231366900   0.0074808500   8.3829958700
O     7.9387922900   1.9906865300  10.6443694500
O     9.9081699900   0.0071313200  10.6391897600
O     7.9421095000  -0.0017834500  -0.2242735506
O     7.9389626300   5.9583507200   2.0347476000
O     9.9187882400   3.9727302200   2.0416170900
O     7.9251873200   3.9668219600   4.0769925000
O     7.9256313300   5.9432266800   6.3418171000
O     9.9213204300   3.9732113300   6.3512248900
O     7.9290638700   3.9741231200   8.3934209400
O     7.9229157200   5.9575967600  10.6528676200
O     9.9147990800   3.9672649200  10.6515233800
O     7.9309910500   3.9727052100  -0.2107464406
O     7.9398113800   9.9230646400   2.0307814000
O     9.9193536800   7.9269334800   2.0487754300
O     7.9302794300   7.9297619100   4.0928804600
O     7.9311338300   9.9065233400   6.3528313900
O     9.9114639800   7.9364525000   6.3419361700
O     7.9416746900   7.9318247800   8.3875810300
O     7.9312508500   9.9208804400  10.6495963100
O     9.9171292300   7.9221793800  10.6428727500
O     7.9288726300   7.9365706600  -0.2235154606
