&CONTROL           
    calculation       =  'scf'                        
    restart_mode      =  'from_scratch'               
    prefix            =  'SiO2'
    pseudo_dir        =  '/n/holyscratch01/kozinsky_lab/sfalletta/QE/Inputs'
    outdir            =  '/n/holyscratch01/kozinsky_lab/sfalletta/QE/SiO2/SiO2-T300-Ez-0'
    etot_conv_thr     =  1.0d-8
    forc_conv_thr     =  1.0d-6
    max_seconds       =  86000
    lelfield          =  .true.                          
    nberrycyc         =  1                   
    tstress           =  .true.                       
    tprnfor           =  .true.
/
&SYSTEM            
    input_dft         =  'PBE'
    ecutwfc           =  100
    ecutrho           =  800
    ibrav             =  14
    A                 =  9.97060582                           
    B                 =  8.634797931240973                           
    C                 =  10.95705942                           
    cosBC             =  0.00                    
    cosAC             =  0.00                     
    cosAB             =  0.00                    
    nat               =  72
    ntyp              =  2
    occupations       =  'fixed'
    nbnd              =  220
/
&ELECTRONS         
    conv_thr          =  1.0d-8
    electron_maxstep  =  500
    mixing_beta       =  0.7
    diagonalization   =  'david'
    diago_full_acc    =  .true.
    efield_cart(1)    =  0                        
    efield_cart(2)    =  0                         
    efield_cart(3)    =  1.0E-04                         
/
ATOMIC_SPECIES     
    Si  28.0855  Si.upf
    O   15.999   O.upf

K_POINTS           automatic
      2 2 2 0 0 0
ATOMIC_POSITIONS   angstrom 
Si       8.78713000       2.16647000       4.64591000
Si       1.33929000       2.32646000       2.90642000
Si       2.37692000       8.53889000       1.00746000
O        9.18729000       3.19760000       0.06459620
O        1.07676000       3.61683000       2.05473000
O        0.22650300       1.98546000       4.03225000
O        1.22594000       0.98636700       1.81727000
O        2.81061000       2.40914000       3.51330000
O        3.32743000       0.56203200       5.13025000
Si       8.89653000       1.90797000      10.12320000
Si       1.33250000       2.12541000       8.22759000
Si       2.34874000       0.00562589       6.35886000
O        8.72410000       3.37776000       5.64523000
O        0.75475500       3.49495000       7.66273000
O        0.39548300       1.52920000       9.30027000
O        1.39769000       1.21159000       7.02381000
O        2.75917000       2.40506000       8.85403000
O        3.32049000       0.77497900       0.06055120
Si       8.75969000       6.47683000       2.79338000
Si       0.14232800       4.19683000       0.81217900
O        8.26462000       7.87539000       2.09730000
O        9.22134000       5.35454000       1.71150000
O        0.01902430       6.73475000       3.71219000
O        0.90610300       5.10498000       5.49515000
Si       8.80891000       6.54994000       8.29150000
Si       9.66070000       4.21911000       6.58136000
O        8.38206000       7.82610000       7.38668000
O        8.80266000       5.26671000       7.32741000
O        0.28332300       6.75905000       9.05565000
O        1.00550000       4.99218000      10.82210000
Si       3.89247000       1.95408000       4.53090000
Si       6.33222000       2.36767000       2.63354000
Si       7.40499000       8.55534000       0.96155600
O        3.95301000       3.26756000       0.04773180
O        5.97547000       3.62927000       1.82625000
O        5.32230000       1.74205000       3.71436000
O        6.41166000       1.18854000       1.60303000
O        7.86442000       2.73232000       3.42077000
O        8.25371000       0.85786600       5.26263000
Si       3.75493000       2.03295000      10.04370000
Si       6.30168000       2.48675000       8.20054000
Si       7.33076000       0.05562070       6.43329000
O        4.02396000       3.01649000       5.72001000
O        5.70544000       3.92318000       7.63514000
O        5.22494000       1.80357000       9.29324000
O        6.44267000       1.31565000       7.07349000
O        7.80820000       2.38818000       8.86452000
O        8.35138000       0.55341400      10.76250000
Si       1.29005000       6.34655000       4.70347000
Si       3.71222000       6.43474000       2.70307000
Si       4.85878000       4.32201000       0.84541900
O        1.48631000       7.51571000       0.16234600
O        3.27687000       7.80238000       2.04006000
O        2.57965000       6.07525000       3.82725000
O        3.94658000       5.17893000       1.75728000
O        5.07519000       6.92225000       3.30235000
O        5.58071000       5.06458000       4.98005000
Si       1.40588000       6.34521000      10.01970000
Si       3.77617000       6.65721000       8.16037000
Si       4.73155000       4.43920000       6.25217000
O        1.41763000       7.60429000       5.68649000
O        3.27724000       8.00754000       7.54306000
O        2.74103000       6.10190000       9.17589000
O        3.79282000       5.65144000       6.79893000
O        5.19206000       6.84188000       8.87996000
O        5.70690000       5.15203000      10.71750000
Si       6.12870000       6.38979000       4.32860000
O        6.35109000       7.57563000       0.28308600
O        7.65793000       6.10048000       3.78286000
Si       6.19274000       6.49984000       9.97590000
O        6.30425000       7.84597000       5.58181000
O        7.68201000       6.29306000       9.40567000
