&CONTROL           
    calculation       =  'scf'                        
    restart_mode      =  'from_scratch'               
    prefix            =  'BaTiO3'
    pseudo_dir        =  '/n/holyscratch01/kozinsky_lab/sfalletta/QE/Inputs'
    outdir            =  '/n/holyscratch01/kozinsky_lab/sfalletta/QE/BaTiO3/BaTiO3-wall-Ez-0'
    etot_conv_thr     =  1.0d-8
    forc_conv_thr     =  1.0d-6
    max_seconds       =  86000
    lelfield          =  .true.                          
    nberrycyc         =  1                   
    tstress           =  .true.                       
    tprnfor           =  .true.
/
&SYSTEM            
    input_dft         =  'PBE'
    ecutwfc           =  100
    ecutrho           =  800
    ibrav             =  14
    A                 =  11.898253                           
    B                 =  11.898253                           
    C                 =  12.912076                           
    cosBC             =  0.00                    
    cosAC             =  0.00                     
    cosAB             =  0.00                    
    nat               =  135
    ntyp              =  3
    occupations       =  'fixed'
/
&ELECTRONS         
    conv_thr          =  1.0d-8
    electron_maxstep  =  500
    mixing_beta       =  0.7
    diagonalization   =  'david'
    diago_full_acc    =  .true.
    efield_cart(1)    =  0                        
    efield_cart(2)    =  0                         
    efield_cart(3)    =  1.0E-04                         
/
ATOMIC_SPECIES     
    Ba  137.327  Ba.upf
    Ti  47.90    Ti.upf
    O   15.999   O.upf

K_POINTS           automatic
      1 1 1 0 0 0
ATOMIC_POSITIONS   angstrom 
Ba    1.9843559300   1.9749708500   0.2560756100
Ba    1.9777398300   1.9777335900   4.5563631600
Ba    1.9908922200   1.9854067400   8.8730718900
Ba    1.9856739600   5.9422449500   0.2521118600
Ba    1.9887716600   5.9492335700   4.5676923200
Ba    1.9890521400   5.9455082400   8.8631893700
Ba    1.9790956600   9.9100202800   0.2577861400
Ba    1.9774907700   9.9086318700   4.5577419800
Ba    1.9750058700   9.9202782300   8.8740634300
Ba    5.9463817800   1.9801876200  -0.2082604700
Ba    5.9433068000   1.9891888800   4.0996163800
Ba    5.9528143400   1.9826105700   8.4067947600
Ba    5.9455076200   5.9480090300  -0.2141915400
Ba    5.9466093100   5.9509014300   4.0989588100
Ba    5.9489547400   5.9421695100   8.3973718900
Ba    5.9428560800   9.9124333200  -0.2138412000
Ba    5.9427132600   9.9068512500   4.0862359300
Ba    5.9523514100   9.9231814600   8.4059372700
Ba    9.9143878100   1.9761831400   0.2516611600
Ba    9.9080392500   1.9765480100   4.5576399500
Ba    9.9091225700   1.9790694300   8.8693046600
Ba    9.9165461400   5.9437234300   0.2624635600
Ba    9.9165111400   5.9480518700   4.5614991000
Ba    9.9091645900   5.9413743500   8.8642949200
Ba    9.9095172700   9.9218169600   0.2558353800
Ba    9.9069815100   9.9122441100   4.5610890100
Ba    9.9221871400   9.9146370000   8.8756872200
Ti    0.0073848000   0.0043153400   2.3244748500
Ti   -0.0009353900  -0.0090839800   6.6274248900
Ti   -0.0021827400   0.0060529300  10.9314344700
Ti    0.0099798600   3.9713879100   2.3321200500
Ti   -0.0070617600   3.9594730700   6.6317592800
Ti    0.0025989900   3.9643535600  10.9389070700
Ti    0.0057167000   7.9252776600   2.3288175500
Ti   -0.0051737900   7.9269203700   6.6303053600
Ti    0.0015815800   7.9291153500  10.9374051700
Ti    3.9585029300   0.0023351600   1.8899125800
Ti    3.9755791900  -0.0087832100   6.1886063300
Ti    3.9631872200  -0.0048041500  10.4813575300
Ti    3.9564312300   3.9717492500   1.8838038700
Ti    3.9640179500   3.9610113100   6.1920981200
Ti    3.9589838300   3.9603122100  10.4988001400
Ti    3.9656837100   7.9335033000   1.8836440500
Ti    3.9670344100   7.9291866300   6.1884376000
Ti    3.9617394500   7.9300323700  10.4854455100
Ti    7.9274282100  -0.0043030900   1.8898879800
Ti    7.9370614600  -0.0096210300   6.1928693300
Ti    7.9380567100  -0.0031112700  10.4878771700
Ti    7.9270885000   3.9716859900   1.8740109700
Ti    7.9266447800   3.9730771800   6.1855521700
Ti    7.9400276600   3.9753295800  10.4890289700
Ti    7.9282789400   7.9296175500   1.8849884300
Ti    7.9329313200   7.9404673600   6.1765701500
Ti    7.9367081100   7.9401294500  10.4906758600
O    -0.0031881500   1.9905399300   1.9471675900
O     1.9802180900  -0.0048648600   1.9575615100
O    -0.0013116400  -0.0083587100   4.0377425300
O    -0.0074638800   1.9772950000   6.2581387000
O     1.9893303400  -0.0090249200   6.2583605900
O     0.0080751600   0.0078989400   8.3304213400
O    -0.0099141100   1.9835183700  10.5609576800
O     1.9750327100   0.0057881100  10.5605070200
O    -0.0099315700  -0.0019401500  -0.2704546506
O    -0.0088103300   5.9577469000   1.9540762900
O     1.9886574800   3.9636476900   1.9589515300
O     0.0017141000   3.9598263700   4.0339962700
O    -0.0051150300   5.9578116400   6.2605872800
O     1.9914280200   3.9678514300   6.2511191800
O    -0.0021999100   3.9588508000   8.3392672200
O    -0.0091696200   5.9442663300  10.5645699900
O     1.9793939800   3.9668500900  10.5665736500
O    -0.0005638300   3.9585883800  -0.2663978306
O    -0.0051208600   9.9171613500   1.9587370200
O     1.9891465900   7.9346838800   1.9539305200
O    -0.0082922000   7.9336072500   4.0290780800
O     0.0078201600   9.9162296100   6.2532635000
O     1.9837917400   7.9336963500   6.2641904800
O     0.0036583700   7.9300698100   8.3454215400
O    -0.0015829100   9.9222696200  10.5667252700
O     1.9807652000   7.9321039500  10.5574344000
O     0.0042418800   7.9335824400  -0.2685869906
O     3.9708155000   1.9921625900   2.4057102300
O     5.9572943400  -0.0004088600   2.3940238000
O     3.9668352100   0.0043253300   4.4821362200
O     3.9742972900   1.9865551900   6.7065380100
O     5.9463923100  -0.0059297600   6.6944887600
O     3.9701209900  -0.0087756600   8.7777758400
O     3.9639975000   1.9792291200  11.0122629400
O     5.9451968600   0.0061345000  10.9999002400
O     3.9565735200   0.0019836500   0.1794556894
O     3.9588660400   5.9478164600   2.4033283700
O     5.9418004900   3.9581218000   2.4050206200
O     3.9629171300   3.9668382900   4.4713910700
O     3.9632081100   5.9499805700   6.7118197900
O     5.9454980900   3.9656167700   6.6935309700
O     3.9604958800   3.9682001400   8.7896776400
O     3.9658678700   5.9491264600  11.0135708300
O     5.9520172800   3.9700699800  10.9990098600
O     3.9678289600   3.9644955900   0.1739353594
O     3.9631154800   9.9243189600   2.3925869200
O     5.9422150500   7.9340080600   2.3994726100
O     3.9645843400   7.9352997700   4.4840724600
O     3.9643831500   9.9218378400   6.6946982700
O     5.9490593200   7.9401417300   6.7120403600
O     3.9702067000   7.9356469200   8.7864181300
O     3.9673783100   9.9132950200  11.0064658900
O     5.9486720300   7.9277651500  11.0087378300
O     3.9638710400   7.9273877300   0.1747131894
O     7.9286679400   1.9839500400   2.3888658100
O     9.9210349900  -0.0046243000   1.9494971200
O     7.9299801500   0.0016362400   4.4840581000
O     7.9233795800   1.9890991900   6.7025158800
O     9.9206283600   0.0015506600   6.2649388700
O     7.9331146000   0.0067060500   8.7835699200
O     7.9300224000   1.9806015600  11.0019477100
O     9.9163754700   0.0038830900  10.5544716600
O     7.9387557400   0.0024751800   0.1786212994
O     7.9266703300   5.9437377900   2.4086554600
O     9.9203921000   3.9658133400   1.9651885800
O     7.9328098300   3.9563728000   4.4782426600
O     7.9240314100   5.9547658400   6.7079086100
O     9.9110404600   3.9729418900   6.2665816300
O     7.9339890800   3.9623058100   8.7819141500
O     7.9290453700   5.9567239400  11.0068112000
O     9.9076796600   3.9643759400  10.5610149200
O     7.9280910200   3.9730942500   0.1724930594
O     7.9369763500   9.9249669900   2.4040717200
O     9.9238289300   7.9387386800   1.9579575000
O     7.9400096300   7.9315359100   4.4733722300
O     7.9321227000   9.9251371000   6.7120268400
O     9.9070535700   7.9361620600   6.2651061300
O     7.9291289800   7.9248194500   8.7758397800
O     7.9336314300   9.9167898700  11.0111517500
O     9.9236223200   7.9305988000  10.5729075200
O     7.9268480600   7.9334142700   0.1696660494
